(set-option :produce-models true); benchmark generated from python API
(set-info :status unknown)
(declare-fun l_0_0_1 () Real)
(declare-fun l_0_0_2 () Real)
(declare-fun l_0_0_3 () Real)
(declare-fun l_0_0_4 () Real)
(declare-fun l_0_0_5 () Real)
(declare-fun l_0_0_6 () Real)
(declare-fun l_0_1_2 () Real)
(declare-fun l_0_1_1 () Real)
(declare-fun l_0_2_3 () Real)
(declare-fun l_0_2_2 () Real)
(declare-fun l_0_2_1 () Real)
(declare-fun l_0_3_1 () Real)
(declare-fun l_0_3_4 () Real)
(declare-fun l_0_3_3 () Real)
(declare-fun l_0_3_2 () Real)
(declare-fun l_0_4_1 () Real)
(declare-fun l_0_4_5 () Real)
(declare-fun l_0_4_4 () Real)
(declare-fun l_0_4_3 () Real)
(declare-fun l_0_4_2 () Real)
(declare-fun l_0_5_1 () Real)
(declare-fun l_0_5_6 () Real)
(declare-fun l_0_5_5 () Real)
(declare-fun l_0_5_4 () Real)
(declare-fun l_0_5_3 () Real)
(declare-fun l_0_5_2 () Real)
(declare-fun l_0_6_1 () Real)
(declare-fun _a_0_ () Real)
(declare-fun l_0_6_7 () Real)
(declare-fun l_0_6_6 () Real)
(declare-fun l_0_6_5 () Real)
(declare-fun l_0_6_4 () Real)
(declare-fun l_0_6_3 () Real)
(declare-fun l_0_6_2 () Real)
(declare-fun _a_2_ () Real)
(declare-fun _a_1_ () Real)
(declare-fun l_0_7_6 () Real)
(declare-fun l_0_7_2 () Real)
(declare-fun l_0_7_1 () Real)
(declare-fun l_0_7_5 () Real)
(declare-fun l_0_7_7 () Real)
(declare-fun l_0_7_4 () Real)
(declare-fun l_0_7_3 () Real)
(declare-fun l_0_8_6 () Real)
(declare-fun l_0_8_2 () Real)
(declare-fun l_0_8_5 () Real)
(declare-fun l_0_8_8 () Real)
(declare-fun l_0_8_7 () Real)
(declare-fun l_0_8_1 () Real)
(declare-fun l_0_8_4 () Real)
(declare-fun l_0_8_3 () Real)
(declare-fun l_0_9_4 () Real)
(declare-fun l_0_9_3 () Real)
(declare-fun l_0_9_6 () Real)
(declare-fun l_0_9_2 () Real)
(declare-fun l_0_9_1 () Real)
(declare-fun l_0_9_5 () Real)
(declare-fun l_0_9_9 () Real)
(declare-fun l_0_9_8 () Real)
(declare-fun l_0_9_7 () Real)
(declare-fun l_0_10_4 () Real)
(declare-fun l_0_10_3 () Real)
(declare-fun l_0_10_6 () Real)
(declare-fun l_0_10_2 () Real)
(declare-fun l_0_10_1 () Real)
(declare-fun l_0_10_5 () Real)
(declare-fun l_0_10_9 () Real)
(declare-fun l_0_10_8 () Real)
(declare-fun l_0_10_7 () Real)
(declare-fun l_0_10_10 () Real)
(declare-fun l_0_11_6 () Real)
(declare-fun l_0_11_2 () Real)
(declare-fun l_0_11_1 () Real)
(declare-fun l_0_11_7 () Real)
(declare-fun l_0_11_5 () Real)
(declare-fun l_0_11_4 () Real)
(declare-fun l_0_11_3 () Real)
(declare-fun l_0_12_6 () Real)
(declare-fun l_0_12_2 () Real)
(declare-fun l_0_12_5 () Real)
(declare-fun l_0_12_8 () Real)
(declare-fun l_0_12_7 () Real)
(declare-fun l_0_12_1 () Real)
(declare-fun l_0_12_4 () Real)
(declare-fun l_0_12_3 () Real)
(declare-fun l_0_13_4 () Real)
(declare-fun l_0_13_3 () Real)
(declare-fun l_0_13_6 () Real)
(declare-fun l_0_13_2 () Real)
(declare-fun l_0_13_1 () Real)
(declare-fun l_0_13_5 () Real)
(declare-fun l_0_13_9 () Real)
(declare-fun l_0_13_8 () Real)
(declare-fun l_0_13_7 () Real)
(declare-fun l_0_14_4 () Real)
(declare-fun l_0_14_3 () Real)
(declare-fun l_0_14_6 () Real)
(declare-fun l_0_14_2 () Real)
(declare-fun l_0_14_1 () Real)
(declare-fun l_0_14_5 () Real)
(declare-fun l_0_14_9 () Real)
(declare-fun l_0_14_8 () Real)
(declare-fun l_0_14_7 () Real)
(declare-fun l_0_14_10 () Real)
(declare-fun l_0_15_4 () Real)
(declare-fun l_0_15_3 () Real)
(declare-fun l_0_15_8 () Real)
(declare-fun l_0_15_6 () Real)
(declare-fun l_0_15_2 () Real)
(declare-fun l_0_15_1 () Real)
(declare-fun l_0_15_7 () Real)
(declare-fun l_0_15_5 () Real)
(declare-fun l_0_16_2 () Real)
(declare-fun l_0_16_1 () Real)
(declare-fun l_0_16_7 () Real)
(declare-fun l_0_16_6 () Real)
(declare-fun l_0_16_9 () Real)
(declare-fun l_0_16_8 () Real)
(declare-fun l_0_16_4 () Real)
(declare-fun l_0_16_3 () Real)
(declare-fun l_0_16_5 () Real)
(declare-fun l_0_17_1 () Real)
(declare-fun l_0_17_2 () Real)
(declare-fun l_0_17_3 () Real)
(declare-fun l_0_17_4 () Real)
(declare-fun l_0_17_5 () Real)
(declare-fun l_0_17_6 () Real)
(declare-fun l_0_17_7 () Real)
(declare-fun l_0_17_8 () Real)
(declare-fun l_0_17_9 () Real)
(declare-fun l_0_17_10 () Real)
(declare-fun l_0_18_1 () Real)
(declare-fun l_0_18_2 () Real)
(declare-fun l_0_18_3 () Real)
(declare-fun l_0_18_4 () Real)
(declare-fun l_0_18_5 () Real)
(declare-fun l_0_18_6 () Real)
(declare-fun l_0_18_7 () Real)
(declare-fun l_0_18_8 () Real)
(declare-fun l_0_18_9 () Real)
(declare-fun l_0_18_10 () Real)
(declare-fun l_0_18_11 () Real)
(declare-fun l_0_19_8 () Real)
(declare-fun l_0_19_6 () Real)
(declare-fun l_0_19_2 () Real)
(declare-fun l_0_19_1 () Real)
(declare-fun l_0_19_7 () Real)
(declare-fun l_0_19_5 () Real)
(declare-fun l_0_19_4 () Real)
(declare-fun l_0_19_3 () Real)
(declare-fun l_0_20_2 () Real)
(declare-fun l_0_20_1 () Real)
(declare-fun l_0_20_9 () Real)
(declare-fun l_0_20_8 () Real)
(declare-fun l_0_20_6 () Real)
(declare-fun l_0_20_7 () Real)
(declare-fun l_0_20_5 () Real)
(declare-fun l_0_20_4 () Real)
(declare-fun l_0_20_3 () Real)
(declare-fun l_0_21_7 () Real)
(declare-fun l_0_21_5 () Real)
(declare-fun l_0_21_4 () Real)
(declare-fun l_0_21_3 () Real)
(declare-fun l_0_21_6 () Real)
(declare-fun l_0_21_2 () Real)
(declare-fun l_0_21_1 () Real)
(declare-fun l_0_21_9 () Real)
(declare-fun l_0_21_8 () Real)
(declare-fun l_0_21_10 () Real)
(declare-fun l_0_22_4 () Real)
(declare-fun l_0_22_3 () Real)
(declare-fun l_0_22_7 () Real)
(declare-fun l_0_22_5 () Real)
(declare-fun l_0_22_6 () Real)
(declare-fun l_0_22_2 () Real)
(declare-fun l_0_22_1 () Real)
(declare-fun l_0_22_9 () Real)
(declare-fun l_0_22_8 () Real)
(declare-fun l_0_22_11 () Real)
(declare-fun l_0_22_10 () Real)
(declare-fun l_0_23_7 () Real)
(declare-fun l_0_23_5 () Real)
(declare-fun l_0_23_4 () Real)
(declare-fun l_0_23_3 () Real)
(declare-fun l_0_23_6 () Real)
(declare-fun l_0_23_9 () Real)
(declare-fun l_0_23_8 () Real)
(declare-fun l_0_23_12 () Real)
(declare-fun l_0_23_11 () Real)
(declare-fun l_0_23_10 () Real)
(declare-fun l_0_23_2 () Real)
(declare-fun l_0_23_1 () Real)
(declare-fun l_0_24_7 () Real)
(declare-fun l_0_24_5 () Real)
(declare-fun l_0_24_4 () Real)
(declare-fun l_0_24_3 () Real)
(declare-fun l_0_24_6 () Real)
(declare-fun l_0_24_9 () Real)
(declare-fun l_0_24_8 () Real)
(declare-fun l_0_24_13 () Real)
(declare-fun l_0_24_12 () Real)
(declare-fun l_0_24_11 () Real)
(declare-fun l_0_24_10 () Real)
(declare-fun l_0_24_2 () Real)
(declare-fun l_0_24_1 () Real)
(assert
 false)
(assert
 (>= l_0_0_1 0.0))
(assert
 (>= l_0_0_2 0.0))
(assert
 (>= l_0_0_3 0.0))
(assert
 (>= l_0_0_4 0.0))
(assert
 (>= l_0_0_5 0.0))
(assert
 (>= l_0_0_6 0.0))
(assert
 (= (- l_0_1_2) 0.0))
(assert
 (= (- l_0_1_1) 0.0))
(assert
 (>= l_0_1_1 0.0))
(assert
 (>= l_0_1_2 0.0))
(assert
 (= (- (- l_0_2_2) l_0_2_3) 0.0))
(assert
 (= (- l_0_2_1) 0.0))
(assert
 (>= l_0_2_1 0.0))
(assert
 (>= l_0_2_2 0.0))
(assert
 (>= l_0_2_3 0.0))
(assert
 (= (- l_0_3_1) 0.0))
(assert
 (= (- (- (- l_0_3_2) l_0_3_3) l_0_3_4) 0.0))
(assert
 (>= l_0_3_1 0.0))
(assert
 (>= l_0_3_2 0.0))
(assert
 (>= l_0_3_3 0.0))
(assert
 (>= l_0_3_4 0.0))
(assert
 (= (- l_0_4_1) 0.0))
(assert
 (= (- (- (- (- l_0_4_2) l_0_4_3) l_0_4_4) l_0_4_5) 0.0))
(assert
 (>= l_0_4_1 0.0))
(assert
 (>= l_0_4_2 0.0))
(assert
 (>= l_0_4_3 0.0))
(assert
 (>= l_0_4_4 0.0))
(assert
 (>= l_0_4_5 0.0))
(assert
 (= (- 1.0 l_0_5_1) 0.0))
(assert
 (= (- (- (- (- (- l_0_5_2) l_0_5_3) l_0_5_4) l_0_5_5) l_0_5_6) 0.0))
(assert
 (>= l_0_5_1 0.0))
(assert
 (>= l_0_5_2 0.0))
(assert
 (>= l_0_5_3 0.0))
(assert
 (>= l_0_5_4 0.0))
(assert
 (>= l_0_5_5 0.0))
(assert
 (>= l_0_5_6 0.0))
(assert
 (= (- _a_0_ l_0_6_1) 0.0))
(assert
 (let ((?x292 (- (- (- (+ _a_1_ (* 1.0 _a_2_)) l_0_6_2) l_0_6_3) l_0_6_4)))
 (= (- (- (- ?x292 l_0_6_5) l_0_6_6) l_0_6_7) 0.0)))
(assert
 (>= l_0_6_1 0.0))
(assert
 (>= l_0_6_2 0.0))
(assert
 (>= l_0_6_3 0.0))
(assert
 (>= l_0_6_4 0.0))
(assert
 (>= l_0_6_5 0.0))
(assert
 (>= l_0_6_6 0.0))
(assert
 (>= l_0_6_7 0.0))
(assert
 (= (+ (- (+ (- l_0_7_1) l_0_7_2) l_0_7_6) 1.0) 0.0))
(assert
 (= (- (+ (* (- 2.0) l_0_7_2) l_0_7_6) 1.0) 0.0))
(assert
 (= (- (+ (- (- l_0_7_2) l_0_7_5) (* (/ 1.0 4.0) l_0_7_6)) (/ 1.0 4.0)) 0.0))
(assert
 (= (- (+ (* 1.0 l_0_7_2) (* 4.0 l_0_7_5)) l_0_7_7) 0.0))
(assert
 (= (+ (- l_0_7_3) l_0_7_4) 0.0))
(assert
 (= (- l_0_7_3 l_0_7_4) 0.0))
(assert
 (= (- l_0_7_3 l_0_7_4) 0.0))
(assert
 (>= l_0_7_1 0.0))
(assert
 (>= l_0_7_2 0.0))
(assert
 (>= l_0_7_3 0.0))
(assert
 (>= l_0_7_4 0.0))
(assert
 (>= l_0_7_5 0.0))
(assert
 (>= l_0_7_6 0.0))
(assert
 (>= l_0_7_7 0.0))
(assert
 (= (+ (+ (* (- 2.0) l_0_8_2) l_0_8_6) 2.0) 0.0))
(assert
 (= (+ (+ (- (- l_0_8_2) l_0_8_5) (* (/ 1.0 4.0) l_0_8_6)) 1.0) 0.0))
(assert
 (let ((?x354 (- (- (+ (* 1.0 l_0_8_2) (* 4.0 l_0_8_5)) l_0_8_7) l_0_8_8)))
 (= (- ?x354 1.0) 0.0)))
(assert
 (= (- (- (+ (- l_0_8_1) l_0_8_2) l_0_8_6) 1.0) 0.0))
(assert
 (= (+ (- l_0_8_3) l_0_8_4) 0.0))
(assert
 (= (- l_0_8_3 l_0_8_4) 0.0))
(assert
 (= (- l_0_8_3 l_0_8_4) 0.0))
(assert
 (>= l_0_8_1 0.0))
(assert
 (>= l_0_8_2 0.0))
(assert
 (>= l_0_8_3 0.0))
(assert
 (>= l_0_8_4 0.0))
(assert
 (>= l_0_8_5 0.0))
(assert
 (>= l_0_8_6 0.0))
(assert
 (>= l_0_8_7 0.0))
(assert
 (>= l_0_8_8 0.0))
(assert
 (= (+ (+ (- l_0_9_3) l_0_9_4) (/ 1.0 4.0)) 0.0))
(assert
 (= (- (- l_0_9_3 l_0_9_4) (/ 1.0 4.0)) 0.0))
(assert
 (= (- (- l_0_9_3 l_0_9_4) (/ 1.0 4.0)) 0.0))
(assert
 (= (- (+ (- l_0_9_1) l_0_9_2) l_0_9_6) 0.0))
(assert
 (= (+ (* (- 2.0) l_0_9_2) l_0_9_6) 0.0))
(assert
 (= (+ (- (- l_0_9_2) l_0_9_5) (* (/ 1.0 4.0) l_0_9_6)) 0.0))
(assert
 (let ((?x398 (- (- (+ (* 1.0 l_0_9_2) (* 4.0 l_0_9_5)) l_0_9_7) l_0_9_8)))
 (= (- ?x398 l_0_9_9) 0.0)))
(assert
 (>= l_0_9_1 0.0))
(assert
 (>= l_0_9_2 0.0))
(assert
 (>= l_0_9_3 0.0))
(assert
 (>= l_0_9_4 0.0))
(assert
 (>= l_0_9_5 0.0))
(assert
 (>= l_0_9_6 0.0))
(assert
 (>= l_0_9_7 0.0))
(assert
 (>= l_0_9_8 0.0))
(assert
 (>= l_0_9_9 0.0))
(assert
 (= (+ (- l_0_10_3 l_0_10_4) (/ 1.0 4.0)) 0.0))
(assert
 (= (+ (- l_0_10_3 l_0_10_4) (/ 1.0 4.0)) 0.0))
(assert
 (= (- (+ (- l_0_10_3) l_0_10_4) (/ 1.0 4.0)) 0.0))
(assert
 (= (- (+ (- l_0_10_1) l_0_10_2) l_0_10_6) 0.0))
(assert
 (= (+ (* (- 2.0) l_0_10_2) l_0_10_6) 0.0))
(assert
 (= (+ (- (- l_0_10_2) l_0_10_5) (* (/ 1.0 4.0) l_0_10_6)) 0.0))
(assert
 (let ((?x434 (- (+ (+ (- l_0_10_10) (* 1.0 l_0_10_2)) (* 4.0 l_0_10_5)) l_0_10_7)))
 (= (- (- ?x434 l_0_10_8) l_0_10_9) 0.0)))
(assert
 (>= l_0_10_1 0.0))
(assert
 (>= l_0_10_2 0.0))
(assert
 (>= l_0_10_3 0.0))
(assert
 (>= l_0_10_4 0.0))
(assert
 (>= l_0_10_5 0.0))
(assert
 (>= l_0_10_6 0.0))
(assert
 (>= l_0_10_7 0.0))
(assert
 (>= l_0_10_8 0.0))
(assert
 (>= l_0_10_9 0.0))
(assert
 (>= l_0_10_10 0.0))
(assert
 (= (+ (+ (+ (- l_0_11_1) l_0_11_2) l_0_11_6) 1.0) 0.0))
(assert
 (= (- (+ (* 1.0 l_0_11_2) (* 4.0 l_0_11_5)) l_0_11_7) 0.0))
(assert
 (= (- (* (- 2.0) l_0_11_2) l_0_11_6) 0.0))
(assert
 (= (- (- (- l_0_11_2) l_0_11_5) (* (/ 1.0 4.0) l_0_11_6)) 0.0))
(assert
 (= (+ (- l_0_11_3) l_0_11_4) 0.0))
(assert
 (= (- l_0_11_3 l_0_11_4) 0.0))
(assert
 (= (- l_0_11_3 l_0_11_4) 0.0))
(assert
 (>= l_0_11_1 0.0))
(assert
 (>= l_0_11_2 0.0))
(assert
 (>= l_0_11_3 0.0))
(assert
 (>= l_0_11_4 0.0))
(assert
 (>= l_0_11_5 0.0))
(assert
 (>= l_0_11_6 0.0))
(assert
 (>= l_0_11_7 0.0))
(assert
 (= (+ (- (* (- 2.0) l_0_12_2) l_0_12_6) 1.0) 0.0))
(assert
 (= (+ (- (- (- l_0_12_2) l_0_12_5) (* (/ 1.0 4.0) l_0_12_6)) (/ 1.0 4.0)) 0.0))
(assert
 (let ((?x492 (- (- (+ (* 1.0 l_0_12_2) (* 4.0 l_0_12_5)) l_0_12_7) l_0_12_8)))
 (= (- ?x492 1.0) 0.0)))
(assert
 (= (- (+ (+ (- l_0_12_1) l_0_12_2) l_0_12_6) 1.0) 0.0))
(assert
 (= (+ (- l_0_12_3) l_0_12_4) 0.0))
(assert
 (= (- l_0_12_3 l_0_12_4) 0.0))
(assert
 (= (- l_0_12_3 l_0_12_4) 0.0))
(assert
 (>= l_0_12_1 0.0))
(assert
 (>= l_0_12_2 0.0))
(assert
 (>= l_0_12_3 0.0))
(assert
 (>= l_0_12_4 0.0))
(assert
 (>= l_0_12_5 0.0))
(assert
 (>= l_0_12_6 0.0))
(assert
 (>= l_0_12_7 0.0))
(assert
 (>= l_0_12_8 0.0))
(assert
 (= (+ (+ (- l_0_13_3) l_0_13_4) (/ 1.0 4.0)) 0.0))
(assert
 (= (- (- l_0_13_3 l_0_13_4) (/ 1.0 4.0)) 0.0))
(assert
 (= (- (- l_0_13_3 l_0_13_4) (/ 1.0 4.0)) 0.0))
(assert
 (= (+ (+ (- l_0_13_1) l_0_13_2) l_0_13_6) 0.0))
(assert
 (= (- (* (- 2.0) l_0_13_2) l_0_13_6) 0.0))
(assert
 (= (- (- (- l_0_13_2) l_0_13_5) (* (/ 1.0 4.0) l_0_13_6)) 0.0))
(assert
 (let ((?x536 (- (- (+ (* 1.0 l_0_13_2) (* 4.0 l_0_13_5)) l_0_13_7) l_0_13_8)))
 (= (- ?x536 l_0_13_9) 0.0)))
(assert
 (>= l_0_13_1 0.0))
(assert
 (>= l_0_13_2 0.0))
(assert
 (>= l_0_13_3 0.0))
(assert
 (>= l_0_13_4 0.0))
(assert
 (>= l_0_13_5 0.0))
(assert
 (>= l_0_13_6 0.0))
(assert
 (>= l_0_13_7 0.0))
(assert
 (>= l_0_13_8 0.0))
(assert
 (>= l_0_13_9 0.0))
(assert
 (= (+ (- l_0_14_3 l_0_14_4) (/ 1.0 4.0)) 0.0))
(assert
 (= (+ (- l_0_14_3 l_0_14_4) (/ 1.0 4.0)) 0.0))
(assert
 (= (- (+ (- l_0_14_3) l_0_14_4) (/ 1.0 4.0)) 0.0))
(assert
 (= (+ (+ (- l_0_14_1) l_0_14_2) l_0_14_6) 0.0))
(assert
 (= (- (* (- 2.0) l_0_14_2) l_0_14_6) 0.0))
(assert
 (= (- (- (- l_0_14_2) l_0_14_5) (* (/ 1.0 4.0) l_0_14_6)) 0.0))
(assert
 (let ((?x572 (- (+ (+ (- l_0_14_10) (* 1.0 l_0_14_2)) (* 4.0 l_0_14_5)) l_0_14_7)))
 (= (- (- ?x572 l_0_14_8) l_0_14_9) 0.0)))
(assert
 (>= l_0_14_1 0.0))
(assert
 (>= l_0_14_2 0.0))
(assert
 (>= l_0_14_3 0.0))
(assert
 (>= l_0_14_4 0.0))
(assert
 (>= l_0_14_5 0.0))
(assert
 (>= l_0_14_6 0.0))
(assert
 (>= l_0_14_7 0.0))
(assert
 (>= l_0_14_8 0.0))
(assert
 (>= l_0_14_9 0.0))
(assert
 (>= l_0_14_10 0.0))
(assert
 (= (+ (- l_0_15_3 l_0_15_4) 1.0) 0.0))
(assert
 (= (- (* (- _a_1_) l_0_15_6) l_0_15_8) 0.0))
(assert
 (= (- l_0_15_1 l_0_15_2) 0.0))
(assert
 (let ((?x599 (- (+ (- (* (- _a_0_) l_0_15_6) l_0_15_3) l_0_15_4) l_0_15_5)))
 (= (+ ?x599 l_0_15_7) 0.0)))
(assert
 (= (- (* (- _a_2_) l_0_15_6) l_0_15_7) 0.0))
(assert
 (>= l_0_15_1 0.0))
(assert
 (>= l_0_15_2 0.0))
(assert
 (>= l_0_15_3 0.0))
(assert
 (>= l_0_15_4 0.0))
(assert
 (>= l_0_15_5 0.0))
(assert
 (>= l_0_15_6 0.0))
(assert
 (>= l_0_15_7 0.0))
(assert
 (>= l_0_15_8 0.0))
(assert
 (= (+ (- l_0_16_1 l_0_16_2) 2.0) 0.0))
(assert
 (= (+ (- (* (- _a_2_) l_0_16_6) l_0_16_7) 1.0) 0.0))
(assert
 (= (- (- (- (* (- _a_1_) l_0_16_6) l_0_16_8) l_0_16_9) 1.0) 0.0))
(assert
 (= (- (- l_0_16_3 l_0_16_4) 1.0) 0.0))
(assert
 (let ((?x632 (- (+ (- (* (- _a_0_) l_0_16_6) l_0_16_3) l_0_16_4) l_0_16_5)))
 (= (+ ?x632 l_0_16_7) 0.0)))
(assert
 (>= l_0_16_1 0.0))
(assert
 (>= l_0_16_2 0.0))
(assert
 (>= l_0_16_3 0.0))
(assert
 (>= l_0_16_4 0.0))
(assert
 (>= l_0_16_5 0.0))
(assert
 (>= l_0_16_6 0.0))
(assert
 (>= l_0_16_7 0.0))
(assert
 (>= l_0_16_8 0.0))
(assert
 (>= l_0_16_9 0.0))
(assert
 false)
(assert
 (>= l_0_17_1 0.0))
(assert
 (>= l_0_17_2 0.0))
(assert
 (>= l_0_17_3 0.0))
(assert
 (>= l_0_17_4 0.0))
(assert
 (>= l_0_17_5 0.0))
(assert
 (>= l_0_17_6 0.0))
(assert
 (>= l_0_17_7 0.0))
(assert
 (>= l_0_17_8 0.0))
(assert
 (>= l_0_17_9 0.0))
(assert
 (>= l_0_17_10 0.0))
(assert
 false)
(assert
 (>= l_0_18_1 0.0))
(assert
 (>= l_0_18_2 0.0))
(assert
 (>= l_0_18_3 0.0))
(assert
 (>= l_0_18_4 0.0))
(assert
 (>= l_0_18_5 0.0))
(assert
 (>= l_0_18_6 0.0))
(assert
 (>= l_0_18_7 0.0))
(assert
 (>= l_0_18_8 0.0))
(assert
 (>= l_0_18_9 0.0))
(assert
 (>= l_0_18_10 0.0))
(assert
 (>= l_0_18_11 0.0))
(assert
 (= (- (* (- _a_1_) l_0_19_6) l_0_19_8) 0.0))
(assert
 (= (- (- l_0_19_1 l_0_19_2) 1.0) 0.0))
(assert
 (let ((?x674 (- (+ (- (* (- _a_0_) l_0_19_6) l_0_19_3) l_0_19_4) l_0_19_5)))
 (= (- ?x674 l_0_19_7) 0.0)))
(assert
 (= (- l_0_19_3 l_0_19_4) 0.0))
(assert
 (= (+ (* (- _a_2_) l_0_19_6) l_0_19_7) 0.0))
(assert
 (>= l_0_19_1 0.0))
(assert
 (>= l_0_19_2 0.0))
(assert
 (>= l_0_19_3 0.0))
(assert
 (>= l_0_19_4 0.0))
(assert
 (>= l_0_19_5 0.0))
(assert
 (>= l_0_19_6 0.0))
(assert
 (>= l_0_19_7 0.0))
(assert
 (>= l_0_19_8 0.0))
(assert
 (= (+ (- l_0_20_1 l_0_20_2) 1.0) 0.0))
(assert
 (= (- (- (* (- _a_1_) l_0_20_6) l_0_20_8) l_0_20_9) 0.0))
(assert
 (let ((?x700 (- (+ (- (* (- _a_0_) l_0_20_6) l_0_20_3) l_0_20_4) l_0_20_5)))
 (= (- ?x700 l_0_20_7) 0.0)))
(assert
 (= (- l_0_20_3 l_0_20_4) 0.0))
(assert
 (= (+ (* (- _a_2_) l_0_20_6) l_0_20_7) 0.0))
(assert
 (>= l_0_20_1 0.0))
(assert
 (>= l_0_20_2 0.0))
(assert
 (>= l_0_20_3 0.0))
(assert
 (>= l_0_20_4 0.0))
(assert
 (>= l_0_20_5 0.0))
(assert
 (>= l_0_20_6 0.0))
(assert
 (>= l_0_20_7 0.0))
(assert
 (>= l_0_20_8 0.0))
(assert
 (>= l_0_20_9 0.0))
(assert
 (let ((?x720 (- (+ (- (* (- _a_0_) l_0_21_6) l_0_21_3) l_0_21_4) l_0_21_5)))
 (= (+ (- ?x720 l_0_21_7) 1.0) 0.0)))
(assert
 (= (- (- l_0_21_3 l_0_21_4) 1.0) 0.0))
(assert
 (= (- l_0_21_1 l_0_21_2) 0.0))
(assert
 (let ((?x732 (- (- (- (* (- _a_1_) l_0_21_6) l_0_21_10) l_0_21_8) l_0_21_9)))
 (= ?x732 0.0)))
(assert
 (= (+ (* (- _a_2_) l_0_21_6) l_0_21_7) 0.0))
(assert
 (>= l_0_21_1 0.0))
(assert
 (>= l_0_21_2 0.0))
(assert
 (>= l_0_21_3 0.0))
(assert
 (>= l_0_21_4 0.0))
(assert
 (>= l_0_21_5 0.0))
(assert
 (>= l_0_21_6 0.0))
(assert
 (>= l_0_21_7 0.0))
(assert
 (>= l_0_21_8 0.0))
(assert
 (>= l_0_21_9 0.0))
(assert
 (>= l_0_21_10 0.0))
(assert
 (= (+ (- l_0_22_3 l_0_22_4) 1.0) 0.0))
(assert
 (let ((?x753 (- (+ (- (* (- _a_0_) l_0_22_6) l_0_22_3) l_0_22_4) l_0_22_5)))
 (= (- (- ?x753 l_0_22_7) 1.0) 0.0)))
(assert
 (= (- l_0_22_1 l_0_22_2) 0.0))
(assert
 (let ((?x762 (- (- (- (* (- _a_1_) l_0_22_6) l_0_22_10) l_0_22_11) l_0_22_8)))
 (= (- ?x762 l_0_22_9) 0.0)))
(assert
 (= (+ (* (- _a_2_) l_0_22_6) l_0_22_7) 0.0))
(assert
 (>= l_0_22_1 0.0))
(assert
 (>= l_0_22_2 0.0))
(assert
 (>= l_0_22_3 0.0))
(assert
 (>= l_0_22_4 0.0))
(assert
 (>= l_0_22_5 0.0))
(assert
 (>= l_0_22_6 0.0))
(assert
 (>= l_0_22_7 0.0))
(assert
 (>= l_0_22_8 0.0))
(assert
 (>= l_0_22_9 0.0))
(assert
 (>= l_0_22_10 0.0))
(assert
 (>= l_0_22_11 0.0))
(assert
 (let ((?x782 (- (+ (- (* (- _a_0_) l_0_23_6) l_0_23_3) l_0_23_4) l_0_23_5)))
 (= (+ (- ?x782 l_0_23_7) 1.0) 0.0)))
(assert
 (let ((?x789 (- (- (- (* (- _a_1_) l_0_23_6) l_0_23_10) l_0_23_11) l_0_23_12)))
 (= (- (- ?x789 l_0_23_8) l_0_23_9) 0.0)))
(assert
 (= (- l_0_23_1 l_0_23_2) 0.0))
(assert
 (= (- l_0_23_3 l_0_23_4) 0.0))
(assert
 (= (+ (* (- _a_2_) l_0_23_6) l_0_23_7) 0.0))
(assert
 (>= l_0_23_1 0.0))
(assert
 (>= l_0_23_2 0.0))
(assert
 (>= l_0_23_3 0.0))
(assert
 (>= l_0_23_4 0.0))
(assert
 (>= l_0_23_5 0.0))
(assert
 (>= l_0_23_6 0.0))
(assert
 (>= l_0_23_7 0.0))
(assert
 (>= l_0_23_8 0.0))
(assert
 (>= l_0_23_9 0.0))
(assert
 (>= l_0_23_10 0.0))
(assert
 (>= l_0_23_11 0.0))
(assert
 (>= l_0_23_12 0.0))
(assert
 (let ((?x816 (- (+ (- (+ (* (- _a_0_) l_0_24_6) _a_0_) l_0_24_3) l_0_24_4) l_0_24_5)))
 (= (- ?x816 l_0_24_7) 0.0)))
(assert
 (let ((?x823 (- (- (- (+ (* (- _a_1_) l_0_24_6) _a_1_) l_0_24_10) l_0_24_11) l_0_24_12)))
 (= (- (- (- ?x823 l_0_24_13) l_0_24_8) l_0_24_9) 0.0)))
(assert
 (= (+ (+ (* (- _a_2_) l_0_24_6) (* 4.0 _a_2_)) l_0_24_7) 0.0))
(assert
 (= (- l_0_24_1 l_0_24_2) 0.0))
(assert
 (= (- l_0_24_3 l_0_24_4) 0.0))
(assert
 (>= l_0_24_1 0.0))
(assert
 (>= l_0_24_2 0.0))
(assert
 (>= l_0_24_3 0.0))
(assert
 (>= l_0_24_4 0.0))
(assert
 (>= l_0_24_5 0.0))
(assert
 (>= l_0_24_6 0.0))
(assert
 (>= l_0_24_7 0.0))
(assert
 (>= l_0_24_8 0.0))
(assert
 (>= l_0_24_9 0.0))
(assert
 (>= l_0_24_10 0.0))
(assert
 (>= l_0_24_11 0.0))
(assert
 (>= l_0_24_12 0.0))
(assert
 (>= l_0_24_13 0.0))
(check-sat)
(get-model)